NAME: tsp_393
COMMENT: Random TSP instance
TYPE: TSP
DIMENSION: 50
EDGE_WEIGHT_TYPE: EUC_2D
NODE_COORD_SECTION
1 968 834
2 953 231
3 289 153
4 54 716
5 881 911
6 414 425
7 673 969
8 725 22
9 284 66
10 84 819
11 409 341
12 410 777
13 810 394
14 788 138
15 790 337
16 906 737
17 157 173
18 794 996
19 534 216
20 192 704
21 333 203
22 403 89
23 281 665
24 666 23
25 509 894
26 375 664
27 878 99
28 874 71
29 678 486
30 218 488
31 130 882
32 225 326
33 707 951
34 190 649
35 567 880
36 763 772
37 240 357
38 769 637
39 85 515
40 441 482
41 663 194
42 661 502
43 532 442
44 714 189
45 67 392
46 832 224
47 958 266
48 246 888
49 381 67
50 706 277
